DIMENSION :11
NODE_COORD_SECTION
1 -50.153437706846745 -86.30289571862413
2 31.119147951565083 27.19714820485612
3 -55.36265857384921 84.51707627881854
4 78.27666937908472 18.598147735926403
5 -82.47506620849698 -54.84694334436087
6 8.53036677579415 29.374395575915003
7 -11.118370342399459 51.7054568313107
8 -36.7302148794407 -22.038849871446246
9 -84.00645745891937 -89.74843802995088
10 -93.79681800845346 -69.45349304396217
11 -4.8114420612130715 35.240638164093355
EOF
